CPXPARAM_Simplex_Display                         2
CPXPARAM_TimeLimit                               7200
CPXPARAM_Read_APIEncoding                        "*"
CPXPARAM_Output_CloneLog                         1
CPXPARAM_MIP_Tolerances_MIPGap                   0.035000000000000003
CPXPARAM_MIP_Interval                            20
CPXPARAM_MIP_Strategy_VariableSelect             1
CPXPARAM_Barrier_Display                         2
Tried aggregator 1 time.
MIP Presolve eliminated 8 rows and 0 columns.
MIP Presolve added 22800 rows and 11400 columns.
MIP Presolve modified 4184 coefficients.
Reduced MIP has 22858 rows, 11800 columns, and 47741 nonzeros.
Reduced MIP has 11800 binaries, 0 generals, 0 SOSs, and 0 indicators.
Presolve time = 0.01 sec. (7.54 ticks)
Found incumbent of value 11545.538251 after 0.12 sec. (60.93 ticks)
Probing fixed 9 vars, tightened 0 bounds.
Probing time = 0.08 sec. (9.11 ticks)
Tried aggregator 1 time.
MIP Presolve eliminated 15732 rows and 4341 columns.
MIP Presolve modified 180 coefficients.
Reduced MIP has 7126 rows, 7459 columns, and 23237 nonzeros.
Reduced MIP has 7459 binaries, 0 generals, 0 SOSs, and 0 indicators.
Presolve time = 0.04 sec. (26.10 ticks)
Probing fixed 9 vars, tightened 0 bounds.
Probing time = 0.05 sec. (5.32 ticks)
Tried aggregator 1 time.
MIP Presolve eliminated 171 rows and 180 columns.
Reduced MIP has 6955 rows, 7279 columns, and 22697 nonzeros.
Reduced MIP has 7279 binaries, 0 generals, 0 SOSs, and 0 indicators.
Presolve time = 0.02 sec. (15.24 ticks)
Probing time = 0.06 sec. (4.75 ticks)
Clique table members: 1632.
MIP emphasis: balance optimality and feasibility.
MIP search method: dynamic search.
Parallel mode: deterministic, using up to 32 threads.
Root relaxation solution time = 0.20 sec. (95.89 ticks)

        Nodes                                         Cuts/
   Node  Left     Objective  IInf  Best Integer    Best Bound    ItCnt     Gap

*     0+    0                          187.7766        0.0000           100.00%
      0     0      176.7583   117      187.7766      176.7583      862    5.87%
      0     0      176.8283    73      187.7766     Cuts: 147     1168    5.83%
      0     0      176.8808    96      187.7766      Cuts: 72     1666    5.80%
      0     0      177.0536    68      187.7766      Cuts: 86     1862    5.71%
      0     0      177.1085    90      187.7766      Cuts: 76     2407    5.68%
      0     0      177.1476   105      187.7766      Cuts: 83     2961    5.66%
      0     0      177.1478    95      187.7766      Cuts: 69     3199    5.66%
      0     0      177.1482    83      187.7766      Cuts: 52     3354    5.66%
      0     0      177.1615    97      187.7766      Cuts: 72     3823    5.65%
      0     0      177.1675    80      187.7766      Cuts: 77     3985    5.65%
      0     0      177.1800    79      187.7766      Cuts: 69     4140    5.64%
*     0+    0                          184.4851      177.1800             3.96%
    120    89      177.1803    68      184.4851      177.1803    14054    3.96%
    720   577      179.2446    69      184.4851      177.1803    66890    3.96%
    820   689      182.1158    45      184.4851      177.1803    74469    3.96%
   1120   792      183.2746    28      184.4851      177.1803    85776    3.96%
   1180   868      179.4182    68      184.1880      177.1803    93259    3.80%
   1660  1361      178.6364    69      184.1880      177.1803   162451    3.80%
   2020  1630      178.2563    64      184.1880      177.1803   197099    3.80%
   2140  1761      179.1059    72      184.1880      177.1803   210645    3.80%
   2340  1889      178.4690    72      184.1880      177.1803   225664    3.80%
   2700  2056      178.6151    67      184.1880      177.1803   246484    3.80%
   3280  2706      177.6562    94      184.1880      177.1803   304785    3.80%
   4060  3125      177.7499    80      184.1880      177.1803   349848    3.80%
   4260  3380      181.9732    57      184.1880      177.1803   367657    3.80%
   4700  3847      178.8083    86      184.1880      177.1803   399009    3.80%
   4720  3738    infeasible            184.1880      177.1803   394655    3.80%
   4840  3823      178.5872    85      184.1880      177.1803   398013    3.80%
GUB cover cuts applied:  6
Clique cuts applied:  31
Implied bound cuts applied:  641
Mixed integer rounding cuts applied:  2
Zero-half cuts applied:  28
Gomory fractional cuts applied:  2

Root node processing (before b&c):
  Real time             =    3.90 sec. (1839.59 ticks)
Parallel b&c, 32 threads:
  Real time             =   15.03 sec. (2660.00 ticks)
  Sync time (average)   =    9.19 sec.
  Wait time (average)   =    0.04 sec.
                          ------------
Total (root+branch&cut) =   18.92 sec. (4499.59 ticks)
